array [1..2] of int: X_INTRODUCED_36_ = [1,-1];
array [1..17] of int: X_INTRODUCED_249_ = [0,633,257,91,412,150,80,134,259,505,353,324,70,211,268,246,121];
array [1..17] of int: X_INTRODUCED_251_ = [633,0,390,661,227,488,572,530,555,289,282,638,567,466,420,745,518];
array [1..17] of int: X_INTRODUCED_253_ = [257,390,0,228,169,112,196,154,372,262,110,437,191,74,53,472,142];
array [1..17] of int: X_INTRODUCED_255_ = [91,661,228,0,383,120,77,105,175,476,324,240,27,182,239,237,84];
array [1..17] of int: X_INTRODUCED_257_ = [412,227,169,383,0,267,351,309,338,196,61,421,346,243,199,528,297];
array [1..17] of int: X_INTRODUCED_259_ = [150,488,112,120,267,0,63,34,264,360,208,329,83,105,123,364,35];
array [1..17] of int: X_INTRODUCED_261_ = [80,572,196,77,351,63,0,29,232,444,292,297,47,150,207,332,29];
array [1..17] of int: X_INTRODUCED_263_ = [134,530,154,105,309,34,29,0,249,402,250,314,68,108,165,349,36];
array [1..17] of int: X_INTRODUCED_265_ = [259,555,372,175,338,264,232,249,0,495,352,95,189,326,383,202,236];
array [1..17] of int: X_INTRODUCED_267_ = [505,289,262,476,196,360,444,402,495,0,154,578,439,336,240,685,390];
array [1..17] of int: X_INTRODUCED_269_ = [353,282,110,324,61,208,292,250,352,154,0,435,287,184,140,542,238];
array [1..17] of int: X_INTRODUCED_271_ = [324,638,437,240,421,329,297,314,95,578,435,0,254,391,448,157,301];
array [1..17] of int: X_INTRODUCED_273_ = [70,567,191,27,346,83,47,68,189,439,287,254,0,145,202,289,55];
array [1..17] of int: X_INTRODUCED_275_ = [211,466,74,182,243,105,150,108,326,336,184,391,145,0,57,426,96];
array [1..17] of int: X_INTRODUCED_277_ = [268,420,53,239,199,123,207,165,383,240,140,448,202,57,0,483,153];
array [1..17] of int: X_INTRODUCED_279_ = [246,745,472,237,528,364,332,349,202,685,542,157,289,426,483,0,336];
array [1..17] of int: X_INTRODUCED_281_ = [121,518,142,84,297,35,29,36,236,390,238,301,55,96,153,336,0];
array [1..18] of int: X_INTRODUCED_285_ = [1,-1,-1,-1,-1,-1,-1,-1,-1,-1,-1,-1,-1,-1,-1,-1,-1,-1];
var 2..17: X_INTRODUCED_0_;
var {1,3,4,5,6,7,8,9,10,11,12,13,14,15,16,17}: X_INTRODUCED_1_;
var {1,2,4,5,6,7,8,9,10,11,12,13,14,15,16,17}: X_INTRODUCED_2_;
var {1,2,3,5,6,7,8,9,10,11,12,13,14,15,16,17}: X_INTRODUCED_3_;
var {1,2,3,4,6,7,8,9,10,11,12,13,14,15,16,17}: X_INTRODUCED_4_;
var {1,2,3,4,5,7,8,9,10,11,12,13,14,15,16,17}: X_INTRODUCED_5_;
var {1,2,3,4,5,6,8,9,10,11,12,13,14,15,16,17}: X_INTRODUCED_6_;
var {1,2,3,4,5,6,7,9,10,11,12,13,14,15,16,17}: X_INTRODUCED_7_;
var {1,2,3,4,5,6,7,8,10,11,12,13,14,15,16,17}: X_INTRODUCED_8_;
var {1,2,3,4,5,6,7,8,9,11,12,13,14,15,16,17}: X_INTRODUCED_9_;
var {1,2,3,4,5,6,7,8,9,10,12,13,14,15,16,17}: X_INTRODUCED_10_;
var {1,2,3,4,5,6,7,8,9,10,11,13,14,15,16,17}: X_INTRODUCED_11_;
var {1,2,3,4,5,6,7,8,9,10,11,12,14,15,16,17}: X_INTRODUCED_12_;
var {1,2,3,4,5,6,7,8,9,10,11,12,13,15,16,17}: X_INTRODUCED_13_;
var {1,2,3,4,5,6,7,8,9,10,11,12,13,14,16,17}: X_INTRODUCED_14_;
var {1,2,3,4,5,6,7,8,9,10,11,12,13,14,15,17}: X_INTRODUCED_15_;
var 1..16: X_INTRODUCED_16_;
var 0..633: X_INTRODUCED_17_:: is_defined_var;
var 0..745: X_INTRODUCED_18_:: is_defined_var;
var 0..472: X_INTRODUCED_19_:: is_defined_var;
var 0..661: X_INTRODUCED_20_:: is_defined_var;
var 0..528: X_INTRODUCED_21_:: is_defined_var;
var 0..488: X_INTRODUCED_22_:: is_defined_var;
var 0..572: X_INTRODUCED_23_:: is_defined_var;
var 0..530: X_INTRODUCED_24_:: is_defined_var;
var 0..555: X_INTRODUCED_25_:: is_defined_var;
var 0..685: X_INTRODUCED_26_:: is_defined_var;
var 0..542: X_INTRODUCED_27_:: is_defined_var;
var 0..638: X_INTRODUCED_28_:: is_defined_var;
var 0..567: X_INTRODUCED_29_:: is_defined_var;
var 0..466: X_INTRODUCED_30_:: is_defined_var;
var 0..483: X_INTRODUCED_31_:: is_defined_var;
var 0..745: X_INTRODUCED_32_:: is_defined_var;
var 0..518: X_INTRODUCED_33_:: is_defined_var;
var 0..9828: obj:: output_var:: is_defined_var;
var 1..17: X_INTRODUCED_38_ ::var_is_introduced ;
var 1..17: X_INTRODUCED_39_ ::var_is_introduced ;
var 1..17: X_INTRODUCED_40_ ::var_is_introduced ;
var 1..17: X_INTRODUCED_41_ ::var_is_introduced ;
var 1..17: X_INTRODUCED_42_ ::var_is_introduced ;
var 1..17: X_INTRODUCED_43_ ::var_is_introduced ;
var 1..17: X_INTRODUCED_44_ ::var_is_introduced ;
var 1..17: X_INTRODUCED_45_ ::var_is_introduced ;
var 1..17: X_INTRODUCED_46_ ::var_is_introduced ;
var 1..17: X_INTRODUCED_47_ ::var_is_introduced ;
var 1..17: X_INTRODUCED_48_ ::var_is_introduced ;
var 1..17: X_INTRODUCED_49_ ::var_is_introduced ;
var 1..17: X_INTRODUCED_50_ ::var_is_introduced ;
var 1..17: X_INTRODUCED_51_ ::var_is_introduced ;
var 1..17: X_INTRODUCED_52_ ::var_is_introduced ;
var 1..17: X_INTRODUCED_53_ ::var_is_introduced ;
var bool: X_INTRODUCED_58_ ::var_is_introduced :: is_defined_var;
var 1..17: X_INTRODUCED_59_ ::var_is_introduced :: is_defined_var;
var bool: X_INTRODUCED_67_ ::var_is_introduced :: is_defined_var;
var bool: X_INTRODUCED_68_ ::var_is_introduced :: is_defined_var;
var bool: X_INTRODUCED_70_ ::var_is_introduced :: is_defined_var;
var 1..17: X_INTRODUCED_71_ ::var_is_introduced :: is_defined_var;
var bool: X_INTRODUCED_79_ ::var_is_introduced :: is_defined_var;
var bool: X_INTRODUCED_80_ ::var_is_introduced :: is_defined_var;
var bool: X_INTRODUCED_82_ ::var_is_introduced :: is_defined_var;
var 1..17: X_INTRODUCED_83_ ::var_is_introduced :: is_defined_var;
var bool: X_INTRODUCED_91_ ::var_is_introduced :: is_defined_var;
var bool: X_INTRODUCED_92_ ::var_is_introduced :: is_defined_var;
var bool: X_INTRODUCED_94_ ::var_is_introduced :: is_defined_var;
var 1..17: X_INTRODUCED_95_ ::var_is_introduced :: is_defined_var;
var bool: X_INTRODUCED_103_ ::var_is_introduced :: is_defined_var;
var bool: X_INTRODUCED_104_ ::var_is_introduced :: is_defined_var;
var bool: X_INTRODUCED_106_ ::var_is_introduced :: is_defined_var;
var 1..17: X_INTRODUCED_107_ ::var_is_introduced :: is_defined_var;
var bool: X_INTRODUCED_115_ ::var_is_introduced :: is_defined_var;
var bool: X_INTRODUCED_116_ ::var_is_introduced :: is_defined_var;
var bool: X_INTRODUCED_118_ ::var_is_introduced :: is_defined_var;
var 1..17: X_INTRODUCED_119_ ::var_is_introduced :: is_defined_var;
var bool: X_INTRODUCED_127_ ::var_is_introduced :: is_defined_var;
var bool: X_INTRODUCED_128_ ::var_is_introduced :: is_defined_var;
var bool: X_INTRODUCED_130_ ::var_is_introduced :: is_defined_var;
var 1..17: X_INTRODUCED_131_ ::var_is_introduced :: is_defined_var;
var bool: X_INTRODUCED_139_ ::var_is_introduced :: is_defined_var;
var bool: X_INTRODUCED_140_ ::var_is_introduced :: is_defined_var;
var bool: X_INTRODUCED_142_ ::var_is_introduced :: is_defined_var;
var 1..17: X_INTRODUCED_143_ ::var_is_introduced :: is_defined_var;
var bool: X_INTRODUCED_151_ ::var_is_introduced :: is_defined_var;
var bool: X_INTRODUCED_152_ ::var_is_introduced :: is_defined_var;
var bool: X_INTRODUCED_154_ ::var_is_introduced :: is_defined_var;
var 1..17: X_INTRODUCED_155_ ::var_is_introduced :: is_defined_var;
var bool: X_INTRODUCED_163_ ::var_is_introduced :: is_defined_var;
var bool: X_INTRODUCED_164_ ::var_is_introduced :: is_defined_var;
var bool: X_INTRODUCED_166_ ::var_is_introduced :: is_defined_var;
var 1..17: X_INTRODUCED_167_ ::var_is_introduced :: is_defined_var;
var bool: X_INTRODUCED_175_ ::var_is_introduced :: is_defined_var;
var bool: X_INTRODUCED_176_ ::var_is_introduced :: is_defined_var;
var bool: X_INTRODUCED_178_ ::var_is_introduced :: is_defined_var;
var 1..17: X_INTRODUCED_179_ ::var_is_introduced :: is_defined_var;
var bool: X_INTRODUCED_187_ ::var_is_introduced :: is_defined_var;
var bool: X_INTRODUCED_188_ ::var_is_introduced :: is_defined_var;
var bool: X_INTRODUCED_190_ ::var_is_introduced :: is_defined_var;
var 1..17: X_INTRODUCED_191_ ::var_is_introduced :: is_defined_var;
var bool: X_INTRODUCED_199_ ::var_is_introduced :: is_defined_var;
var bool: X_INTRODUCED_200_ ::var_is_introduced :: is_defined_var;
var bool: X_INTRODUCED_202_ ::var_is_introduced :: is_defined_var;
var 1..17: X_INTRODUCED_203_ ::var_is_introduced :: is_defined_var;
var bool: X_INTRODUCED_211_ ::var_is_introduced :: is_defined_var;
var bool: X_INTRODUCED_212_ ::var_is_introduced :: is_defined_var;
var bool: X_INTRODUCED_214_ ::var_is_introduced :: is_defined_var;
var 1..17: X_INTRODUCED_215_ ::var_is_introduced :: is_defined_var;
var bool: X_INTRODUCED_223_ ::var_is_introduced :: is_defined_var;
var bool: X_INTRODUCED_224_ ::var_is_introduced :: is_defined_var;
var bool: X_INTRODUCED_226_ ::var_is_introduced :: is_defined_var;
var 1..17: X_INTRODUCED_227_ ::var_is_introduced :: is_defined_var;
var bool: X_INTRODUCED_235_ ::var_is_introduced :: is_defined_var;
var bool: X_INTRODUCED_236_ ::var_is_introduced :: is_defined_var;
var bool: X_INTRODUCED_238_ ::var_is_introduced :: is_defined_var;
var 1..17: X_INTRODUCED_239_ ::var_is_introduced :: is_defined_var;
var bool: X_INTRODUCED_247_ ::var_is_introduced :: is_defined_var;
var bool: X_INTRODUCED_248_ ::var_is_introduced :: is_defined_var;
array [1..17] of var int: succ:: output_array([1..17]) = [X_INTRODUCED_0_,X_INTRODUCED_1_,X_INTRODUCED_2_,X_INTRODUCED_3_,X_INTRODUCED_4_,X_INTRODUCED_5_,X_INTRODUCED_6_,X_INTRODUCED_7_,X_INTRODUCED_8_,X_INTRODUCED_9_,X_INTRODUCED_10_,X_INTRODUCED_11_,X_INTRODUCED_12_,X_INTRODUCED_13_,X_INTRODUCED_14_,X_INTRODUCED_15_,X_INTRODUCED_16_];
array [1..17] of var int: X_INTRODUCED_35_ ::var_is_introduced  = [1,X_INTRODUCED_38_,X_INTRODUCED_39_,X_INTRODUCED_40_,X_INTRODUCED_41_,X_INTRODUCED_42_,X_INTRODUCED_43_,X_INTRODUCED_44_,X_INTRODUCED_45_,X_INTRODUCED_46_,X_INTRODUCED_47_,X_INTRODUCED_48_,X_INTRODUCED_49_,X_INTRODUCED_50_,X_INTRODUCED_51_,X_INTRODUCED_52_,X_INTRODUCED_53_];
array [1..18] of var int: X_INTRODUCED_284_ ::var_is_introduced  = [obj,X_INTRODUCED_17_,X_INTRODUCED_18_,X_INTRODUCED_19_,X_INTRODUCED_20_,X_INTRODUCED_21_,X_INTRODUCED_22_,X_INTRODUCED_23_,X_INTRODUCED_24_,X_INTRODUCED_25_,X_INTRODUCED_26_,X_INTRODUCED_27_,X_INTRODUCED_28_,X_INTRODUCED_29_,X_INTRODUCED_30_,X_INTRODUCED_31_,X_INTRODUCED_32_,X_INTRODUCED_33_];
constraint array_var_int_element(X_INTRODUCED_0_,X_INTRODUCED_35_,2);
constraint array_var_int_element(X_INTRODUCED_1_,X_INTRODUCED_35_,X_INTRODUCED_59_):: defines_var(X_INTRODUCED_59_);
constraint array_var_int_element(X_INTRODUCED_2_,X_INTRODUCED_35_,X_INTRODUCED_71_):: defines_var(X_INTRODUCED_71_);
constraint array_var_int_element(X_INTRODUCED_3_,X_INTRODUCED_35_,X_INTRODUCED_83_):: defines_var(X_INTRODUCED_83_);
constraint array_var_int_element(X_INTRODUCED_4_,X_INTRODUCED_35_,X_INTRODUCED_95_):: defines_var(X_INTRODUCED_95_);
constraint array_var_int_element(X_INTRODUCED_5_,X_INTRODUCED_35_,X_INTRODUCED_107_):: defines_var(X_INTRODUCED_107_);
constraint array_var_int_element(X_INTRODUCED_6_,X_INTRODUCED_35_,X_INTRODUCED_119_):: defines_var(X_INTRODUCED_119_);
constraint array_var_int_element(X_INTRODUCED_7_,X_INTRODUCED_35_,X_INTRODUCED_131_):: defines_var(X_INTRODUCED_131_);
constraint array_var_int_element(X_INTRODUCED_8_,X_INTRODUCED_35_,X_INTRODUCED_143_):: defines_var(X_INTRODUCED_143_);
constraint array_var_int_element(X_INTRODUCED_9_,X_INTRODUCED_35_,X_INTRODUCED_155_):: defines_var(X_INTRODUCED_155_);
constraint array_var_int_element(X_INTRODUCED_10_,X_INTRODUCED_35_,X_INTRODUCED_167_):: defines_var(X_INTRODUCED_167_);
constraint array_var_int_element(X_INTRODUCED_11_,X_INTRODUCED_35_,X_INTRODUCED_179_):: defines_var(X_INTRODUCED_179_);
constraint array_var_int_element(X_INTRODUCED_12_,X_INTRODUCED_35_,X_INTRODUCED_191_):: defines_var(X_INTRODUCED_191_);
constraint array_var_int_element(X_INTRODUCED_13_,X_INTRODUCED_35_,X_INTRODUCED_203_):: defines_var(X_INTRODUCED_203_);
constraint array_var_int_element(X_INTRODUCED_14_,X_INTRODUCED_35_,X_INTRODUCED_215_):: defines_var(X_INTRODUCED_215_);
constraint array_var_int_element(X_INTRODUCED_15_,X_INTRODUCED_35_,X_INTRODUCED_227_):: defines_var(X_INTRODUCED_227_);
constraint array_var_int_element(X_INTRODUCED_16_,X_INTRODUCED_35_,X_INTRODUCED_239_):: defines_var(X_INTRODUCED_239_);
constraint bool_clause([X_INTRODUCED_247_],[X_INTRODUCED_238_]);
constraint array_bool_or([X_INTRODUCED_238_,X_INTRODUCED_248_],true);
constraint array_int_element(X_INTRODUCED_0_,X_INTRODUCED_249_,X_INTRODUCED_17_):: defines_var(X_INTRODUCED_17_);
constraint array_int_element(X_INTRODUCED_1_,X_INTRODUCED_251_,X_INTRODUCED_18_):: defines_var(X_INTRODUCED_18_);
constraint array_int_element(X_INTRODUCED_2_,X_INTRODUCED_253_,X_INTRODUCED_19_):: defines_var(X_INTRODUCED_19_);
constraint array_int_element(X_INTRODUCED_3_,X_INTRODUCED_255_,X_INTRODUCED_20_):: defines_var(X_INTRODUCED_20_);
constraint array_int_element(X_INTRODUCED_4_,X_INTRODUCED_257_,X_INTRODUCED_21_):: defines_var(X_INTRODUCED_21_);
constraint array_int_element(X_INTRODUCED_5_,X_INTRODUCED_259_,X_INTRODUCED_22_):: defines_var(X_INTRODUCED_22_);
constraint array_int_element(X_INTRODUCED_6_,X_INTRODUCED_261_,X_INTRODUCED_23_):: defines_var(X_INTRODUCED_23_);
constraint array_int_element(X_INTRODUCED_7_,X_INTRODUCED_263_,X_INTRODUCED_24_):: defines_var(X_INTRODUCED_24_);
constraint array_int_element(X_INTRODUCED_8_,X_INTRODUCED_265_,X_INTRODUCED_25_):: defines_var(X_INTRODUCED_25_);
constraint array_int_element(X_INTRODUCED_9_,X_INTRODUCED_267_,X_INTRODUCED_26_):: defines_var(X_INTRODUCED_26_);
constraint array_int_element(X_INTRODUCED_10_,X_INTRODUCED_269_,X_INTRODUCED_27_):: defines_var(X_INTRODUCED_27_);
constraint array_int_element(X_INTRODUCED_11_,X_INTRODUCED_271_,X_INTRODUCED_28_):: defines_var(X_INTRODUCED_28_);
constraint array_int_element(X_INTRODUCED_12_,X_INTRODUCED_273_,X_INTRODUCED_29_):: defines_var(X_INTRODUCED_29_);
constraint array_int_element(X_INTRODUCED_13_,X_INTRODUCED_275_,X_INTRODUCED_30_):: defines_var(X_INTRODUCED_30_);
constraint array_int_element(X_INTRODUCED_14_,X_INTRODUCED_277_,X_INTRODUCED_31_):: defines_var(X_INTRODUCED_31_);
constraint array_int_element(X_INTRODUCED_15_,X_INTRODUCED_279_,X_INTRODUCED_32_):: defines_var(X_INTRODUCED_32_);
constraint array_int_element(X_INTRODUCED_16_,X_INTRODUCED_281_,X_INTRODUCED_33_):: defines_var(X_INTRODUCED_33_);
solve :: int_search(succ,first_fail,indomain_min,complete) minimize obj;
